(define-sort Feature () Bool)
(declare-const f0 Feature)
(declare-const f1 Feature)
(declare-const f2 Feature)
(declare-const f3 Feature)
(declare-const f4 Feature)
(declare-const f5 Feature)
(declare-const f6 Feature)
(declare-const f7 Feature)
(declare-const f8 Feature)
(declare-const f9 Feature)
(declare-const f10 Feature)
(declare-const f11 Feature)
(declare-const f12 Feature)
(declare-const f13 Feature)
(declare-const f14 Feature)
(declare-const f15 Feature)
(declare-const f16 Feature)
(declare-const f17 Feature)
(declare-const f18 Feature)
(declare-const f19 Feature)
(declare-const f20 Feature)

(assert f0)
(assert (and
   (=> f1 f0)
   (=> f2 f1)
   (=> f3 f2)
   (=> f4 f3)
   (=> f5 f4)
   (=> f6 f5)
   (=> f7 f6)
   (=> f8 f7)
   (=> f9 f8)
   (=> f10 f9)
   (=> f11 f10)
   (=> f12 f11)
   (=> f13 f12)
   (=> f14 f13)
   (=> f15 f14)
   (=> f16 f15)
   (=> f17 f16)
   (=> f18 f17)
   (=> f19 f18)
   (=> f20 f19)
))

(push)
(assert (and f0 f1))
(check-sat)
(pop)
(push)
(assert (and f0 f2))
(check-sat)
(pop)
(push)
(assert (and f0 f3))
(check-sat)
(pop)
(push)
(assert (and f0 f4))
(check-sat)
(pop)
(push)
(assert (and f0 f5))
(check-sat)
(pop)
(push)
(assert (and f0 f6))
(check-sat)
(pop)
(push)
(assert (and f0 f7))
(check-sat)
(pop)
(push)
(assert (and f0 f8))
(check-sat)
(pop)
(push)
(assert (and f0 f9))
(check-sat)
(pop)
(push)
(assert (and f0 f10))
(check-sat)
(pop)
(push)
(assert (and f0 f11))
(check-sat)
(pop)
(push)
(assert (and f0 f12))
(check-sat)
(pop)
(push)
(assert (and f0 f13))
(check-sat)
(pop)
(push)
(assert (and f0 f14))
(check-sat)
(pop)
(push)
(assert (and f0 f15))
(check-sat)
(pop)
(push)
(assert (and f0 f16))
(check-sat)
(pop)
(push)
(assert (and f0 f17))
(check-sat)
(pop)
(push)
(assert (and f0 f18))
(check-sat)
(pop)
(push)
(assert (and f0 f19))
(check-sat)
(pop)
(push)
(assert (and f0 f20))
(check-sat)
(pop)
(push)
(assert (and f1 f2))
(check-sat)
(pop)
(push)
(assert (and f1 f3))
(check-sat)
(pop)
(push)
(assert (and f1 f4))
(check-sat)
(pop)
(push)
(assert (and f1 f5))
(check-sat)
(pop)
(push)
(assert (and f1 f6))
(check-sat)
(pop)
(push)
(assert (and f1 f7))
(check-sat)
(pop)
(push)
(assert (and f1 f8))
(check-sat)
(pop)
(push)
(assert (and f1 f9))
(check-sat)
(pop)
(push)
(assert (and f1 f10))
(check-sat)
(pop)
(push)
(assert (and f1 f11))
(check-sat)
(pop)
(push)
(assert (and f1 f12))
(check-sat)
(pop)
(push)
(assert (and f1 f13))
(check-sat)
(pop)
(push)
(assert (and f1 f14))
(check-sat)
(pop)
(push)
(assert (and f1 f15))
(check-sat)
(pop)
(push)
(assert (and f1 f16))
(check-sat)
(pop)
(push)
(assert (and f1 f17))
(check-sat)
(pop)
(push)
(assert (and f1 f18))
(check-sat)
(pop)
(push)
(assert (and f1 f19))
(check-sat)
(pop)
(push)
(assert (and f1 f20))
(check-sat)
(pop)
(push)
(assert (and f2 f3))
(check-sat)
(pop)
(push)
(assert (and f2 f4))
(check-sat)
(pop)
(push)
(assert (and f2 f5))
(check-sat)
(pop)
(push)
(assert (and f2 f6))
(check-sat)
(pop)
(push)
(assert (and f2 f7))
(check-sat)
(pop)
(push)
(assert (and f2 f8))
(check-sat)
(pop)
(push)
(assert (and f2 f9))
(check-sat)
(pop)
(push)
(assert (and f2 f10))
(check-sat)
(pop)
(push)
(assert (and f2 f11))
(check-sat)
(pop)
(push)
(assert (and f2 f12))
(check-sat)
(pop)
(push)
(assert (and f2 f13))
(check-sat)
(pop)
(push)
(assert (and f2 f14))
(check-sat)
(pop)
(push)
(assert (and f2 f15))
(check-sat)
(pop)
(push)
(assert (and f2 f16))
(check-sat)
(pop)
(push)
(assert (and f2 f17))
(check-sat)
(pop)
(push)
(assert (and f2 f18))
(check-sat)
(pop)
(push)
(assert (and f2 f19))
(check-sat)
(pop)
(push)
(assert (and f2 f20))
(check-sat)
(pop)
(push)
(assert (and f3 f4))
(check-sat)
(pop)
(push)
(assert (and f3 f5))
(check-sat)
(pop)
(push)
(assert (and f3 f6))
(check-sat)
(pop)
(push)
(assert (and f3 f7))
(check-sat)
(pop)
(push)
(assert (and f3 f8))
(check-sat)
(pop)
(push)
(assert (and f3 f9))
(check-sat)
(pop)
(push)
(assert (and f3 f10))
(check-sat)
(pop)
(push)
(assert (and f3 f11))
(check-sat)
(pop)
(push)
(assert (and f3 f12))
(check-sat)
(pop)
(push)
(assert (and f3 f13))
(check-sat)
(pop)
(push)
(assert (and f3 f14))
(check-sat)
(pop)
(push)
(assert (and f3 f15))
(check-sat)
(pop)
(push)
(assert (and f3 f16))
(check-sat)
(pop)
(push)
(assert (and f3 f17))
(check-sat)
(pop)
(push)
(assert (and f3 f18))
(check-sat)
(pop)
(push)
(assert (and f3 f19))
(check-sat)
(pop)
(push)
(assert (and f3 f20))
(check-sat)
(pop)
(push)
(assert (and f4 f5))
(check-sat)
(pop)
(push)
(assert (and f4 f6))
(check-sat)
(pop)
(push)
(assert (and f4 f7))
(check-sat)
(pop)
(push)
(assert (and f4 f8))
(check-sat)
(pop)
(push)
(assert (and f4 f9))
(check-sat)
(pop)
(push)
(assert (and f4 f10))
(check-sat)
(pop)
(push)
(assert (and f4 f11))
(check-sat)
(pop)
(push)
(assert (and f4 f12))
(check-sat)
(pop)
(push)
(assert (and f4 f13))
(check-sat)
(pop)
(push)
(assert (and f4 f14))
(check-sat)
(pop)
(push)
(assert (and f4 f15))
(check-sat)
(pop)
(push)
(assert (and f4 f16))
(check-sat)
(pop)
(push)
(assert (and f4 f17))
(check-sat)
(pop)
(push)
(assert (and f4 f18))
(check-sat)
(pop)
(push)
(assert (and f4 f19))
(check-sat)
(pop)
(push)
(assert (and f4 f20))
(check-sat)
(pop)
(push)
(assert (and f5 f6))
(check-sat)
(pop)
(push)
(assert (and f5 f7))
(check-sat)
(pop)
(push)
(assert (and f5 f8))
(check-sat)
(pop)
(push)
(assert (and f5 f9))
(check-sat)
(pop)
(push)
(assert (and f5 f10))
(check-sat)
(pop)
(push)
(assert (and f5 f11))
(check-sat)
(pop)
(push)
(assert (and f5 f12))
(check-sat)
(pop)
(push)
(assert (and f5 f13))
(check-sat)
(pop)
(push)
(assert (and f5 f14))
(check-sat)
(pop)
(push)
(assert (and f5 f15))
(check-sat)
(pop)
(push)
(assert (and f5 f16))
(check-sat)
(pop)
(push)
(assert (and f5 f17))
(check-sat)
(pop)
(push)
(assert (and f5 f18))
(check-sat)
(pop)
(push)
(assert (and f5 f19))
(check-sat)
(pop)
(push)
(assert (and f5 f20))
(check-sat)
(pop)
(push)
(assert (and f6 f7))
(check-sat)
(pop)
(push)
(assert (and f6 f8))
(check-sat)
(pop)
(push)
(assert (and f6 f9))
(check-sat)
(pop)
(push)
(assert (and f6 f10))
(check-sat)
(pop)
(push)
(assert (and f6 f11))
(check-sat)
(pop)
(push)
(assert (and f6 f12))
(check-sat)
(pop)
(push)
(assert (and f6 f13))
(check-sat)
(pop)
(push)
(assert (and f6 f14))
(check-sat)
(pop)
(push)
(assert (and f6 f15))
(check-sat)
(pop)
(push)
(assert (and f6 f16))
(check-sat)
(pop)
(push)
(assert (and f6 f17))
(check-sat)
(pop)
(push)
(assert (and f6 f18))
(check-sat)
(pop)
(push)
(assert (and f6 f19))
(check-sat)
(pop)
(push)
(assert (and f6 f20))
(check-sat)
(pop)
(push)
(assert (and f7 f8))
(check-sat)
(pop)
(push)
(assert (and f7 f9))
(check-sat)
(pop)
(push)
(assert (and f7 f10))
(check-sat)
(pop)
(push)
(assert (and f7 f11))
(check-sat)
(pop)
(push)
(assert (and f7 f12))
(check-sat)
(pop)
(push)
(assert (and f7 f13))
(check-sat)
(pop)
(push)
(assert (and f7 f14))
(check-sat)
(pop)
(push)
(assert (and f7 f15))
(check-sat)
(pop)
(push)
(assert (and f7 f16))
(check-sat)
(pop)
(push)
(assert (and f7 f17))
(check-sat)
(pop)
(push)
(assert (and f7 f18))
(check-sat)
(pop)
(push)
(assert (and f7 f19))
(check-sat)
(pop)
(push)
(assert (and f7 f20))
(check-sat)
(pop)
(push)
(assert (and f8 f9))
(check-sat)
(pop)
(push)
(assert (and f8 f10))
(check-sat)
(pop)
(push)
(assert (and f8 f11))
(check-sat)
(pop)
(push)
(assert (and f8 f12))
(check-sat)
(pop)
(push)
(assert (and f8 f13))
(check-sat)
(pop)
(push)
(assert (and f8 f14))
(check-sat)
(pop)
(push)
(assert (and f8 f15))
(check-sat)
(pop)
(push)
(assert (and f8 f16))
(check-sat)
(pop)
(push)
(assert (and f8 f17))
(check-sat)
(pop)
(push)
(assert (and f8 f18))
(check-sat)
(pop)
(push)
(assert (and f8 f19))
(check-sat)
(pop)
(push)
(assert (and f8 f20))
(check-sat)
(pop)
(push)
(assert (and f9 f10))
(check-sat)
(pop)
(push)
(assert (and f9 f11))
(check-sat)
(pop)
(push)
(assert (and f9 f12))
(check-sat)
(pop)
(push)
(assert (and f9 f13))
(check-sat)
(pop)
(push)
(assert (and f9 f14))
(check-sat)
(pop)
(push)
(assert (and f9 f15))
(check-sat)
(pop)
(push)
(assert (and f9 f16))
(check-sat)
(pop)
(push)
(assert (and f9 f17))
(check-sat)
(pop)
(push)
(assert (and f9 f18))
(check-sat)
(pop)
(push)
(assert (and f9 f19))
(check-sat)
(pop)
(push)
(assert (and f9 f20))
(check-sat)
(pop)
(push)
(assert (and f10 f11))
(check-sat)
(pop)
(push)
(assert (and f10 f12))
(check-sat)
(pop)
(push)
(assert (and f10 f13))
(check-sat)
(pop)
(push)
(assert (and f10 f14))
(check-sat)
(pop)
(push)
(assert (and f10 f15))
(check-sat)
(pop)
(push)
(assert (and f10 f16))
(check-sat)
(pop)
(push)
(assert (and f10 f17))
(check-sat)
(pop)
(push)
(assert (and f10 f18))
(check-sat)
(pop)
(push)
(assert (and f10 f19))
(check-sat)
(pop)
(push)
(assert (and f10 f20))
(check-sat)
(pop)
(push)
(assert (and f11 f12))
(check-sat)
(pop)
(push)
(assert (and f11 f13))
(check-sat)
(pop)
(push)
(assert (and f11 f14))
(check-sat)
(pop)
(push)
(assert (and f11 f15))
(check-sat)
(pop)
(push)
(assert (and f11 f16))
(check-sat)
(pop)
(push)
(assert (and f11 f17))
(check-sat)
(pop)
(push)
(assert (and f11 f18))
(check-sat)
(pop)
(push)
(assert (and f11 f19))
(check-sat)
(pop)
(push)
(assert (and f11 f20))
(check-sat)
(pop)
(push)
(assert (and f12 f13))
(check-sat)
(pop)
(push)
(assert (and f12 f14))
(check-sat)
(pop)
(push)
(assert (and f12 f15))
(check-sat)
(pop)
(push)
(assert (and f12 f16))
(check-sat)
(pop)
(push)
(assert (and f12 f17))
(check-sat)
(pop)
(push)
(assert (and f12 f18))
(check-sat)
(pop)
(push)
(assert (and f12 f19))
(check-sat)
(pop)
(push)
(assert (and f12 f20))
(check-sat)
(pop)
(push)
(assert (and f13 f14))
(check-sat)
(pop)
(push)
(assert (and f13 f15))
(check-sat)
(pop)
(push)
(assert (and f13 f16))
(check-sat)
(pop)
(push)
(assert (and f13 f17))
(check-sat)
(pop)
(push)
(assert (and f13 f18))
(check-sat)
(pop)
(push)
(assert (and f13 f19))
(check-sat)
(pop)
(push)
(assert (and f13 f20))
(check-sat)
(pop)
(push)
(assert (and f14 f15))
(check-sat)
(pop)
(push)
(assert (and f14 f16))
(check-sat)
(pop)
(push)
(assert (and f14 f17))
(check-sat)
(pop)
(push)
(assert (and f14 f18))
(check-sat)
(pop)
(push)
(assert (and f14 f19))
(check-sat)
(pop)
(push)
(assert (and f14 f20))
(check-sat)
(pop)
(push)
(assert (and f15 f16))
(check-sat)
(pop)
(push)
(assert (and f15 f17))
(check-sat)
(pop)
(push)
(assert (and f15 f18))
(check-sat)
(pop)
(push)
(assert (and f15 f19))
(check-sat)
(pop)
(push)
(assert (and f15 f20))
(check-sat)
(pop)
(push)
(assert (and f16 f17))
(check-sat)
(pop)
(push)
(assert (and f16 f18))
(check-sat)
(pop)
(push)
(assert (and f16 f19))
(check-sat)
(pop)
(push)
(assert (and f16 f20))
(check-sat)
(pop)
(push)
(assert (and f17 f18))
(check-sat)
(pop)
(push)
(assert (and f17 f19))
(check-sat)
(pop)
(push)
(assert (and f17 f20))
(check-sat)
(pop)
(push)
(assert (and f18 f19))
(check-sat)
(pop)
(push)
(assert (and f18 f20))
(check-sat)
(pop)
(push)
(assert (and f19 f20))
(check-sat)
(pop)
